NAME : OMNETRUN
COMMENT : 524.61
TYPE : CVRP
DIMENSION : 21
EDGE_WEIGHT_TYPE : EUC_2D
CAPACITY : 21
NODE_COORD_SECTION
1 0.107093 -0.77924
2 132.851 -1214.73
3 13.7015 -1860.44
4 202.188 -2530.98
5 182.115 -3150.86
6 218.522 -4100.04
7 34.9808 -5003.32
8 77.2172 -5612.69
9 265.598 -165.769
10 317.944 -665.389
11 396.756 -1730.77
12 439.684 -2216.32
13 455.04 -2833.4
14 401.182 -3513.66
15 608.742 -73.7306
16 524.163 -1267.32
17 524.651 -4848.82
18 555.644 -5268.44
19 574.785 -5813.62
20 840.194 -445.695
21 773.605 -1780.05
DEMAND_SECTION
1 0
2 1
3 1
4 1
5 1
6 1
7 1
8 1
9 1
10 1
11 1
12 1
13 1
14 1
15 1
16 1
17 1
18 1
19 1
20 1
21 1
DEPOT_SECTION
1
-1
EOF
